100
128
11
50
14
58
18
27
4
16
41
2
59
31
33
61
51
26
29
37
23
36
59
18
51
34
31
26
49
40
39
18
62
36
6
24
26
41
58
36
38
54
22
48
46
30
22
51
55
7
7
55
38
28
4
48
29
19
62
43
1
31
23
4
21
38
25
47
4
50
33
63
22
43
52
19
57
39
58
54
26
26
29
27
22
42
38
48
40
45
32
29
41
26
32
10
50
35
43
25
60
42